\ENCODING=ISO-8859-1
\Problem name: SUFL_5_5_0

Minimize
 obj: 30 x1#0 + 30 x2#1 + 30 x3#2 + 30 x4#3 + 30 x5#4 + _eta#5
Subject To
 c_g_1:    x1#0 + x2#1 + x3#2 + x4#3 + x5#4 >= 1
 cut_0101: 41.2 x1#0 + 38.6 x2#1 + 62.9299999999999 x3#2 + 22 x4#3 + 56.47 x5#4
           + _eta#5 >= 225.91
 cut_0102: 31.2 x1#0 + 24.53 x2#1 + 18.62 x3#2 + 17.53 x4#3 + _eta#5 >= 169.44
Bounds
 0 <= x1#0 <= 1
 0 <= x2#1 <= 1
 0 <= x3#2 <= 1
 0 <= x4#3 <= 1
 0 <= x5#4 <= 1
Binaries
 x1#0  x2#1  x3#2  x4#3  x5#4 
End
